n = 50;
C = 223;
w = [9,29,24,330,31,285,130,385,6,494,99,137,300,464,388,355,124,434,441,320,251,323,301,9,255,298,62,475,192,55,44,28,146,200,397,196,180,29,176,369,380,404,162,60,349,386,170,362,52,68];
p = [39,409,5,384,72,159,482,401,174,4,324,155,122,82,438,24,374,92,248,203,336,29,3,66,29,160,33,150,87,486,450,397,116,74,402,306,112,212,425,130,483,230,426,479,456,118,460,260,259,131];
